;; Mutation-Based Equivalence Benchmark
;; Source:     AutomatArk / instance14509.smt2
;; Mutations:  intersect_min_len_5, intersect_no_at_sign
;; Status:     sat
;;
;; Original regex vs mutated regex
;; Equivalence check: unsat ⟺ L(R1) = L(R2)

(set-info :smt-lib-version 2.6)
(set-info :category "mutation")
(set-info :status sat)
(set-logic QF_S)


;; R1: original
;; R2: mutated (intersect_min_len_5, intersect_no_at_sign)
(assert
  (not
    (=
      (re.++ (str.to_re "/filename") (re.* (re.union (str.to_re " ") (str.to_re "\u{9}") (str.to_re "\u{a}") (str.to_re "\u{c}") (str.to_re "\u{d}"))) (str.to_re "=") (re.* (re.union (str.to_re " ") (str.to_re "\u{9}") (str.to_re "\u{a}") (str.to_re "\u{c}") (str.to_re "\u{d}"))) (re.* (re.union (str.to_re "\u{d}") (str.to_re "\u{a}"))) (str.to_re ".swf") (re.union (str.to_re "\u{22}") (str.to_re "'") (str.to_re ";") (str.to_re "\u{d}") (str.to_re "\u{a}") (str.to_re " ") (str.to_re "\u{9}") (str.to_re "\u{a}") (str.to_re "\u{c}") (str.to_re "\u{d}")) (str.to_re "/i\u{a}"))
      (re.++ (str.to_re "/filename") (re.* (re.union (str.to_re " ") (str.to_re "\u{9}") (str.to_re "\u{a}") (str.to_re "\u{c}") (str.to_re "\u{d}"))) (str.to_re "=") (re.* (re.inter (re.union (str.to_re " ") (str.to_re "\u{9}") (str.to_re "\u{a}") (str.to_re "\u{c}") (str.to_re "\u{d}")) (re.comp (re.++ re.all (str.to_re "@") re.all)))) (re.* (re.union (str.to_re "\u{d}") (str.to_re "\u{a}"))) (str.to_re ".swf") (re.inter (re.union (str.to_re "\u{22}") (str.to_re "'") (str.to_re ";") (str.to_re "\u{d}") (str.to_re "\u{a}") (str.to_re " ") (str.to_re "\u{9}") (str.to_re "\u{a}") (str.to_re "\u{c}") (str.to_re "\u{d}")) (re.++ ((_ re.loop 5 5) re.allchar) re.all)) (str.to_re "/i\u{a}")))))

(check-sat)
(exit)
